p cnf 29 70
3 5 0
-4 5 0
-3 4 -5 0
6 8 0
-7 8 0
-6 7 -8 0
-1 8 -9 0
1 -8 -9 0
-1 -8 9 0
1 8 9 0
-9 0
5 -12 0
10 -12 0
-11 -12 0
-5 -10 11 12 0
10 13 0
-5 13 0
5 -10 -13 0
13 -15 0
-14 -15 0
-13 14 15 0
1 -15 16 0
1 15 -16 0
-1 -12 16 0
-1 12 -16 0
18 19 0
-7 19 0
7 -18 -19 0
-17 -20 0
19 -20 0
17 -19 20 0
-2 20 -21 0
2 -20 -21 0
-2 -20 21 0
2 20 21 0
-21 0
-14 -22 0
11 -22 0
-11 14 22 0
11 -23 0
14 -23 0
-16 -23 0
-11 -14 16 23 0
2 -14 24 0
2 14 -24 0
-2 -22 24 0
-2 22 -24 0
2 -23 25 0
2 23 -25 0
-2 -4 25 0
-2 4 -25 0
-11 26 0
-16 26 0
24 26 0
11 16 -24 -26 0
16 -27 0
-26 -27 0
-16 26 27 0
11 28 0
-24 28 0
-27 28 0
-11 24 27 -28 0
25 -29 0
-26 -29 0
-25 26 29 0
26 0
28 0
24 0
25 0
29 0
c main::1::x1!0@1#1 3
c main::1::x2!0@1#1 10
c main::1::x3!0@1#1 14
c main::1::x4!0@1#1 4
c main::1::x5!0@1#1 11
c main::1::r1!0@1#1 6
c main::1::r2!0@1#1 17
c main::1::r3!0@1#1 18
c main::1::r4!0@1#1 7
c main::1::x1!0@1#2 5
c goto_symex::\guard#1 1
c main::1::x2!0@1#2 12
c main::1::x2!0@1#3 15
c main::1::x2!0@1#4 16
c goto_symex::\guard#2 2
c main::1::x3!0@1#2 22
c main::1::x4!0@1#2 23
c main::1::x3!0@1#3 24
c main::1::x4!0@1#3 25
c main::1::x1!0@1#3 26
c main::1::x2!0@1#5 28
c main::1::x5!0@1#2 29
